\ NETLIB afiro - smallest NETLIB problem
\ 32 vars, 27 cons, optimal = -464.7531

MINIMIZE
 obj: - 0.4 x01 + 0.32 x02 - 0.6 x03 + 0.5 x04 - 0.48 x05 + 0.4 x06
      + 10 x07 - 0.0 x08 + 0.0 x09 + 0.0 x10 + 0.0 x11 + 0.0 x12
      + 0.0 x13 + 0.0 x14 + 0.0 x15 + 0.0 x16 + 0.0 x17 + 0.0 x18
      + 0.0 x19 + 0.0 x20 + 0.0 x21 + 0.0 x22 + 0.0 x23 + 0.0 x24
      + 0.0 x25 + 0.0 x26 + 0.0 x27 + 0.0 x28 + 0.0 x29 + 0.0 x30
      + 0.0 x31 + 0.0 x32

SUBJECT TO
 r01: 0.301 x01 + x15 = 2.191
 r02: 0.301 x02 + x17 = 2.219
 r03: 0.313 x03 + x19 = 2.249
 r04: 0.313 x04 + x21 = 2.367
 r05: 0.326 x05 + x23 = 2.099
 r06: 0.326 x06 + x25 = 2.039
 r07: 0.501 x01 + x27 = 1.883
 r08: 0.480 x02 + x28 = 1.783
 r09: 0.480 x03 + x29 = 1.698
 r10: 0.480 x04 + x30 = 1.663
 r11: 0.480 x05 + x31 = 1.618
 r12: 0.480 x06 + x32 = 1.558
 r13: - 2.3 x07 + x09 + x11 - x13 = 0
 r14: - 2.3 x08 + x10 + x12 - x14 = 0
 r15: - x15 + 1.4 x16 = 0
 r16: - x16 - x17 + 1.4 x18 = 0
 r17: - x18 - x19 + 1.4 x20 = 0
 r18: - x20 - x21 + 1.4 x22 = 0
 r19: - x22 - x23 + 1.4 x24 = 0
 r20: - x24 - x25 + 1.4 x26 = 0
 r21: - x27 + 0.67 x16 = 0
 r22: - x28 + 0.67 x18 = 0
 r23: - x29 + 0.67 x20 = 0
 r24: - x30 + 0.67 x22 = 0
 r25: - x31 + 0.67 x24 = 0
 r26: - x32 + 0.67 x26 = 0
 r27: x07 + x08 - x09 - x10 = 0

BOUNDS
 0 <= x01 <= 80
 0 <= x02 <= 80
 0 <= x03 <= 80
 0 <= x04 <= 80
 0 <= x05 <= 80
 0 <= x06 <= 80
 x07 free
 x08 free
 0 <= x09 <= 500
 0 <= x10 <= 500
 0 <= x11 <= 500
 0 <= x12 <= 500
 0 <= x13 <= 500
 0 <= x14 <= 500
 x15 free
 x16 free
 x17 free
 x18 free
 x19 free
 x20 free
 x21 free
 x22 free
 x23 free
 x24 free
 x25 free
 x26 free
 x27 free
 x28 free
 x29 free
 x30 free
 x31 free
 x32 free

END
